%SETS
JOBS = 1..10;
MACHINES = 1..20;
SPEED    = 3;

time = array3d(JOBS,MACHINES,1..SPEED,[23, 5, 4, 7, 1, 1, 8, 2, 1, 7, 1, 1, 10, 2, 1, 4, 1, 1, 4, 1, 1, 85, 21, 15, 83, 20, 15, 5, 1, 1, 1, 1, 1, 5, 1, 1, 31, 7, 5, 39, 9, 7, 1, 1, 1, 22, 5, 4, 1, 1, 1, 18, 4, 3, 26, 6, 4, 109, 26, 19, 7, 1, 1, 41, 10, 7, 52, 12, 9, 66, 16, 11, 1, 1, 1, 16, 4, 2, 103, 25, 18, 13, 3, 2, 43, 10, 7, 20, 5, 3, 38, 9, 6, 17, 4, 3, 1, 1, 1, 2, 1, 1, 3, 1, 1, 7, 1, 1, 86, 21, 15, 25, 6, 4, 43, 10, 7, 21, 5, 3, 26, 6, 4, 43, 10, 7, 67, 16, 12, 63, 15, 11, 45, 11, 8, 2, 1, 1, 11, 2, 2, 1, 1, 1, 20, 5, 3, 41, 10, 7, 1, 1, 1, 5, 1, 1, 11, 2, 2, 7, 1, 1, 41, 10, 7, 11, 2, 2, 26, 6, 4, 17, 4, 3, 22, 5, 4, 72, 17, 13, 74, 18, 13, 3, 1, 1, 48, 11, 8, 10, 2, 1, 2, 1, 1, 12, 3, 2, 18, 4, 3, 84, 20, 15, 12, 2, 2, 1, 1, 1, 50, 12, 9, 3, 1, 1, 16, 4, 3, 49, 12, 8, 18, 4, 3, 15, 3, 2, 41, 10, 7, 1, 1, 1, 21, 5, 3, 13, 3, 2, 108, 26, 19, 41, 10, 7, 1, 1, 1, 5, 1, 1, 15, 3, 2, 31, 7, 5, 10, 2, 1, 11, 2, 2, 65, 16, 11, 79, 19, 14, 13, 3, 2, 59, 14, 10, 10, 2, 1, 2, 1, 1, 19, 4, 3, 27, 6, 5, 57, 14, 10, 86, 21, 15, 38, 9, 6, 36, 9, 6, 32, 7, 5, 31, 7, 5, 37, 9, 6, 94, 23, 17, 12, 2, 2, 2, 1, 1, 7, 1, 1, 6, 1, 1, 11, 2, 2, 43, 10, 7, 1, 1, 1, 15, 3, 2, 43, 10, 7, 7, 1, 1, 1, 1, 1, 7, 1, 1, 2, 1, 1, 42, 10, 7, 4, 1, 1, 5, 1, 1, 43, 10, 7, 43, 10, 7, 23, 5, 4, 63, 15, 11, 1, 1, 1, 86, 21, 15, 21, 5, 3, 9, 2, 1, 45, 11, 8, 27, 6, 5, 111, 27, 20, 2, 1, 1, 22, 5, 4, 16, 4, 2, 27, 6, 4, 7, 1, 1, 1, 1, 1, 20, 4, 3, 11, 2, 2, 57, 14, 10, 15, 3, 2, 14, 3, 2, 25, 6, 4, 19, 4, 3, 84, 20, 15, 40, 9, 7, 17, 4, 3, 6, 1, 1, 23, 5, 4, 35, 8, 6, 36, 8, 6, 130, 31, 23, 6, 1, 1, 14, 3, 2, 14, 3, 2, 9, 2, 1, 11, 2, 2, 16, 4, 3, 20, 4, 3, 7, 1, 1, 3, 1, 1, 9, 2, 1, 3, 1, 1, 9, 2, 1, 29, 7, 5, 23, 5, 4, 152, 37, 27, 21, 5, 3, 20, 5, 3, 26, 6, 4, 33, 8, 6, 24, 6, 4, 22, 5, 4, 24, 5, 4, 11, 2, 2, 38, 9, 6, 24, 5, 4, 9, 2, 1, 7, 1, 1, 1, 1, 1, 11, 2, 1, 1, 1, 1, 4, 1, 1, 1, 1, 1, 8, 2, 1, 11, 2, 1, 23, 5, 4, 38, 9, 6, 25, 6, 4, 4, 1, 1, 58, 14, 10, 33, 8, 6, 17, 4, 3, 26, 6, 4, 18, 4, 3, 4, 1, 1, 26, 6, 4, 114, 28, 20, 38, 9, 6, 5, 1, 1]);
energy = array3d(JOBS,MACHINES,1..SPEED,[79, 95, 96, 93, 99, 99, 92, 98, 99, 93, 99, 99, 90, 98, 99, 96, 99, 99, 96, 99, 99, 42, 81, 86, 43, 81, 86, 95, 99, 99, 99, 99, 99, 95, 99, 99, 73, 93, 95, 67, 91, 93, 99, 99, 99, 80, 95, 96, 99, 99, 99, 83, 96, 97, 77, 94, 96, 33, 77, 82, 93, 99, 99, 66, 90, 93, 59, 88, 91, 51, 85, 89, 99, 99, 99, 85, 96, 98, 35, 77, 83, 87, 97, 98, 65, 90, 93, 81, 95, 97, 68, 91, 94, 84, 96, 97, 99, 99, 99, 98, 99, 99, 97, 99, 99, 93, 99, 99, 42, 81, 86, 77, 94, 96, 65, 90, 93, 81, 95, 97, 77, 94, 96, 65, 90, 93, 51, 85, 88, 53, 86, 89, 63, 89, 92, 98, 99, 99, 89, 98, 98, 99, 99, 99, 81, 95, 97, 66, 90, 93, 99, 99, 99, 95, 99, 99, 89, 98, 98, 93, 99, 99, 66, 90, 93, 89, 98, 98, 77, 94, 96, 84, 96, 97, 80, 95, 96, 48, 84, 87, 47, 83, 87, 97, 99, 99, 61, 89, 92, 90, 98, 99, 98, 99, 99, 88, 97, 98, 83, 96, 97, 43, 81, 86, 88, 98, 98, 99, 99, 99, 60, 88, 91, 97, 99, 99, 85, 96, 97, 61, 88, 92, 83, 96, 97, 86, 97, 98, 66, 90, 93, 99, 99, 99, 81, 95, 97, 87, 97, 98, 33, 77, 82, 66, 90, 93, 99, 99, 99, 95, 99, 99, 86, 97, 98, 73, 93, 95, 90, 98, 99, 89, 98, 98, 52, 85, 89, 45, 82, 86, 87, 97, 98, 55, 86, 90, 90, 98, 99, 98, 99, 99, 82, 96, 97, 76, 94, 95, 56, 86, 90, 42, 81, 86, 68, 91, 94, 69, 91, 94, 72, 93, 95, 73, 93, 95, 69, 91, 94, 39, 79, 84, 88, 98, 98, 98, 99, 99, 93, 99, 99, 94, 99, 99, 89, 98, 98, 65, 90, 93, 99, 99, 99, 86, 97, 98, 65, 90, 93, 93, 99, 99, 99, 99, 99, 93, 99, 99, 98, 99, 99, 65, 90, 93, 96, 99, 99, 95, 99, 99, 65, 90, 93, 65, 90, 93, 79, 95, 96, 53, 86, 89, 99, 99, 99, 42, 81, 86, 81, 95, 97, 91, 98, 99, 63, 89, 92, 76, 94, 95, 32, 76, 81, 98, 99, 99, 80, 95, 96, 85, 96, 98, 76, 94, 96, 93, 99, 99, 99, 99, 99, 81, 96, 97, 89, 98, 98, 56, 86, 90, 86, 97, 98, 86, 97, 98, 77, 94, 96, 82, 96, 97, 43, 81, 86, 67, 91, 93, 84, 96, 97, 94, 99, 99, 79, 95, 96, 70, 92, 94, 69, 92, 94, 27, 73, 79, 94, 99, 99, 86, 97, 98, 86, 97, 98, 91, 98, 99, 89, 98, 98, 85, 96, 97, 81, 96, 97, 93, 99, 99, 97, 99, 99, 91, 98, 99, 97, 99, 99, 91, 98, 99, 74, 93, 95, 79, 95, 96, 21, 69, 76, 81, 95, 97, 81, 95, 97, 77, 94, 96, 71, 92, 94, 78, 94, 96, 80, 95, 96, 78, 95, 96, 89, 98, 98, 68, 91, 94, 78, 95, 96, 91, 98, 99, 93, 99, 99, 99, 99, 99, 89, 98, 99, 99, 99, 99, 96, 99, 99, 99, 99, 99, 92, 98, 99, 89, 98, 99, 79, 95, 96, 68, 91, 94, 77, 94, 96, 96, 99, 99, 55, 86, 90, 71, 92, 94, 84, 96, 97, 77, 94, 96, 83, 96, 97, 96, 99, 99, 77, 94, 96, 31, 75, 81, 68, 91, 94, 95, 99, 99]);
precedence = array2d(JOBS,MACHINES,[12, 9, 1, 18, 16, 8, 11, 19, 2, 7, 13, 3, 17, 5, 15, 0, 4, 6, 10, 14, 13, 10, 1, 16, 18, 6, 7, 5, 12, 15, 14, 3, 2, 9, 11, 0, 4, 8, 19, 17, 18, 19, 1, 3, 4, 8, 16, 2, 0, 10, 15, 6, 5, 9, 14, 12, 7, 13, 11, 17, 11, 9, 0, 5, 4, 10, 19, 15, 3, 14, 12, 7, 2, 13, 1, 17, 18, 6, 8, 16, 18, 11, 7, 5, 12, 6, 14, 9, 2, 3, 13, 10, 8, 1, 4, 19, 0, 17, 16, 15, 11, 14, 3, 15, 7, 16, 19, 13, 1, 8, 10, 0, 6, 9, 5, 17, 18, 2, 4, 12, 12, 7, 15, 11, 17, 9, 14, 6, 2, 5, 3, 0, 13, 1, 18, 10, 16, 19, 8, 4, 10, 7, 15, 8, 6, 1, 2, 5, 11, 13, 19, 17, 16, 14, 3, 18, 9, 4, 0, 12, 17, 19, 4, 12, 10, 8, 13, 9, 15, 16, 3, 5, 1, 7, 6, 11, 14, 0, 18, 2, 11, 2, 13, 17, 10, 3, 9, 4, 6, 0, 12, 8, 18, 16, 7, 15, 1, 14, 5, 19]);